(set-logic ALL)
(set-option :produce-models true)
(define-fun-rec str.toLower ((x String)) String
  (ite (= x "")
      ""
      (let ((Head (str.at x 0)))
        (str.++ 
          (ite (and (<= 65 (str.to_code Head)) 
                     (<= (str.to_code Head) 90))
               (str.from_code (+ (str.to_code Head) 32))
               Head)
          (str.toLower (str.substr x 1 (- (str.len x) 1)))))))
(declare-fun sym601 () String)
(declare-fun sym403 () String)
(declare-fun sym205 () String)
(declare-fun sym645 () String)
(declare-fun sym449 () String)
(declare-fun sym329 () String)
(declare-fun sym529 () String)
(declare-fun sym681 () String)
(declare-fun sym485 () String)
(declare-fun sym563 () String)
(declare-fun sym245 () String)
(declare-fun sym368 () String)
(declare-fun sym721 () String)
(declare-fun sym160 () String)
(declare-fun sym284 () String)
(declare-fun sym459 () String)
(declare-fun sym735 () String)
(declare-fun sym539 () String)
(declare-fun sym419 () String)
(declare-fun sym175 () String)
(declare-fun sym495 () String)
(declare-fun sym255 () String)
(declare-fun sym135 () String)
(declare-fun sym577 () String)
(declare-fun sym655 () String)
(declare-fun sym215 () String)
(declare-fun sym611 () String)
(declare-fun sym294 () String)
(declare-fun sym691 () String)
(declare-fun sym20 () String)
(declare-fun sym745 () String)
(declare-fun sym701 () String)
(declare-fun sym549 () String)
(declare-fun sym505 () String)
(declare-fun sym429 () String)
(declare-fun sym309 () String)
(declare-fun sym343 () String)
(declare-fun sym587 () String)
(declare-fun sym269 () String)
(declare-fun sym225 () String)
(declare-fun sym621 () String)
(declare-fun sym665 () String)
(declare-fun sym185 () String)
(declare-fun sym383 () String)
(declare-fun sym711 () String)
(declare-fun sym755 () String)
(declare-fun sym635 () String)
(declare-fun sym515 () String)
(declare-fun sym439 () String)
(declare-fun sym319 () String)
(declare-fun sym475 () String)
(declare-fun sym113 () String)
(declare-fun sym235 () String)
(declare-fun sym358 () String)
(declare-fun sym150 () String)
(declare-fun sym393 () String)
(declare-fun sym195 () String)

(assert (not (= (str.toLower sym475 )(str.toLower "name" ))))
(assert (not (= (str.toLower sym485 )(str.toLower "description" ))))
(assert (not (= (str.toLower sym235 )(str.toLower "name" ))))
(assert (not (= (str.toLower sym185 )(str.toLower "description" ))))
(assert (not (= (str.toLower sym711 )(str.toLower "length" ))))
(assert (not (= (str.toLower sym601 )(str.toLower "name" ))))
(assert (= (str.toLower sym160 )(str.toLower "description" )))
(assert (= (str.toLower sym587 )(str.toLower "description" )))
(assert (not (= (str.toLower sym245 )(str.toLower "description" ))))
(assert (not (= (str.toLower sym735 )(str.toLower "name" ))))
(assert (= (str.toLower sym269 )(str.toLower "name" )))
(assert (= (str.toLower sym135 )(str.toLower "name" )))
(assert (not (= (str.toLower sym539 )(str.toLower "description" ))))
(assert (= (str.toLower sym549 )(str.toLower "field" )))
(assert (not (= (str.toLower sym577 )(str.toLower "name" ))))
(assert (not (= (str.toLower sym20 )"sql" )))
(assert (= (str.toLower sym403 )(str.toLower "type" )))
(assert (not (= (str.toLower sym755 )(str.toLower "field" ))))
(assert (not (= (str.toLower sym150 )(str.toLower "name" ))))
(assert (= (str.toLower sym329 )(str.toLower "field" )))
(assert (not (= (str.toLower sym205 )(str.toLower "name" ))))
(assert (not (= (str.toLower sym393 )(str.toLower "description" ))))
(assert (not (= (str.toLower sym439 )(str.toLower "type" ))))
(assert (not (= (str.toLower sym681 )(str.toLower "name" ))))
(assert (= (str.toLower sym294 )(str.toLower "description" )))
(assert (not (= (str.toLower sym449 )(str.toLower "length" ))))
(assert (= (str.toLower sym343 )(str.toLower "name" )))
(assert (= (str.toLower sym721 )(str.toLower "option" )))
(assert (not (= (str.toLower sym383 )(str.toLower "name" ))))
(assert (not (= (str.toLower sym645 )(str.toLower "description" ))))
(assert (= (str.toLower sym20 )"html" ))
(assert (not (= (str.toLower sym655 )(str.toLower "type" ))))
(assert (not (= (str.toLower sym505 )(str.toLower "length" ))))
(assert (not (= (str.toLower sym635 )(str.toLower "name" ))))
(assert (not (= (str.toLower sym225 )(str.toLower "table" ))))
(assert (not (= (str.toLower sym429 )(str.toLower "description" ))))
(assert (not (= (str.toLower sym309 )(str.toLower "name" ))))
(assert (= (str.toLower sym515 )(str.toLower "option" )))
(assert (= (str.toLower sym621 )(str.toLower "type" )))
(assert (not (= (str.toLower sym319 )(str.toLower "description" ))))
(assert (not (= (str.toLower sym358 )(str.toLower "name" ))))
(assert (= (str.toLower sym459 )(str.toLower "option" )))
(assert (= (str.toLower sym368 )(str.toLower "description" )))
(assert (not (= (str.toLower sym529 )(str.toLower "name" ))))
(assert (not (= (str.toLower sym195 )(str.toLower "table" ))))
(assert (= (str.toLower sym113 )(str.toLower "database" )))
(assert (not (= (str.toLower sym284 )(str.toLower "name" ))))
(assert (not (= (str.toLower sym215 )(str.toLower "description" ))))
(assert (= (str.toLower sym255 )(str.toLower "table" )))
(assert (= (str.toLower sym563 )(str.toLower "name" )))
(assert (= (str.toLower sym665 )(str.toLower "length" )))
(assert (not (= (str.toLower sym745 )(str.toLower "description" ))))
(assert (not (= (str.toLower sym691 )(str.toLower "description" ))))
(assert (not (= (str.toLower sym495 )(str.toLower "type" ))))
(assert (not (= (str.toLower sym419 )(str.toLower "name" ))))
(assert (not (= (str.toLower sym175 )(str.toLower "name" ))))
(assert (not (= (str.toLower sym611 )(str.toLower "description" ))))
(assert (not (= (str.toLower sym701 )(str.toLower "type" ))))
(check-sat)
(get-model)
(exit)
